Nodes = {"N1", "N2", "N3", "N4", "N5", "N6", "N7", "N8", "N9", "N10", "N11", "N12", "N13", "N14", "N15", "N16"};
Arcs = {<"N1","N2",48,0>, <"N1","N3",48,223>, <"N1","N4",48,187>, <"N1","N5",48,0>, <"N1","N6",48,0>, <"N1","N7",48,0>, <"N1","N8",48,0>, <"N1","N9",48,225>, <"N1","N10",48,352>, <"N1","N11",48,307>, <"N1","N12",48,0>, <"N1","N13",48,0>, <"N1","N14",48,391>, <"N1","N15",48,0>, <"N1","N16",48,305>, <"N2","N1",48,0>, <"N2","N3",48,324>, <"N2","N4",48,326>, <"N2","N5",48,0>, <"N2","N6",48,0>, <"N2","N7",48,262>, <"N2","N8",48,249>, <"N2","N9",48,394>, <"N2","N10",48,518>, <"N2","N11",48,451>, <"N2","N12",48,0>, <"N2","N13",48,0>, <"N2","N14",48,549>, <"N2","N15",48,0>, <"N2","N16",48,473>, <"N3","N1",48,223>, <"N3","N2",48,324>, <"N3","N4",48,0>, <"N3","N5",48,371>, <"N3","N6",48,0>, <"N3","N7",48,0>, <"N3","N8",48,0>, <"N3","N9",48,270>, <"N3","N10",48,291>, <"N3","N11",48,0>, <"N3","N12",48,485>, <"N3","N13",48,565>, <"N3","N14",48,467>, <"N3","N15",48,407>, <"N3","N16",48,337>, <"N4","N1",48,187>, <"N4","N2",48,326>, <"N4","N3",48,0>, <"N4","N5",48,321>, <"N4","N6",48,207>, <"N4","N7",48,0>, <"N4","N8",48,0>, <"N4","N9",48,0>, <"N4","N10",48,0>, <"N4","N11",48,0>, <"N4","N12",48,458>, <"N4","N13",48,501>, <"N4","N14",48,384>, <"N4","N15",48,331>, <"N4","N16",48,255>, <"N5","N1",48,0>, <"N5","N2",48,0>, <"N5","N3",48,371>, <"N5","N4",48,321>, <"N5","N6",48,276>, <"N5","N7",48,177>, <"N5","N8",48,288>, <"N5","N9",48,271>, <"N5","N10",48,426>, <"N5","N11",48,427>, <"N5","N12",48,0>, <"N5","N13",48,0>, <"N5","N14",48,367>, <"N5","N15",48,0>, <"N5","N16",48,333>, <"N6","N1",48,0>, <"N6","N2",48,0>, <"N6","N3",48,0>, <"N6","N4",48,207>, <"N6","N5",48,276>, <"N6","N7",48,0>, <"N6","N8",48,0>, <"N6","N9",48,334>, <"N6","N10",48,424>, <"N6","N11",48,327>, <"N6","N12",48,334>, <"N6","N13",48,489>, <"N6","N14",48,520>, <"N6","N15",48,395>, <"N6","N16",48,416>, <"N7","N1",48,0>, <"N7","N2",48,262>, <"N7","N3",48,0>, <"N7","N4",48,0>, <"N7","N5",48,177>, <"N7","N6",48,0>, <"N7","N8",48,0>, <"N7","N9",48,0>, <"N7","N10",48,0>, <"N7","N11",48,250>, <"N7","N12",48,0>, <"N7","N13",48,0>, <"N7","N14",48,0>, <"N7","N15",48,0>, <"N7","N16",48,213>, <"N8","N1",48,0>, <"N8","N2",48,249>, <"N8","N3",48,0>, <"N8","N4",48,0>, <"N8","N5",48,288>, <"N8","N6",48,0>, <"N8","N7",48,0>, <"N8","N9",48,237>, <"N8","N10",48,305>, <"N8","N11",48,206>, <"N8","N12",48,401>, <"N8","N13",48,488>, <"N8","N14",48,434>, <"N8","N15",48,345>, <"N8","N16",48,315>, <"N9","N1",48,225>, <"N9","N2",48,394>, <"N9","N3",48,270>, <"N9","N4",48,0>, <"N9","N5",48,271>, <"N9","N6",48,334>, <"N9","N7",48,0>, <"N9","N8",48,237>, <"N9","N10",48,0>, <"N9","N11",48,0>, <"N9","N12",48,445>, <"N9","N13",48,381>, <"N9","N14",48,0>, <"N9","N15",48,0>, <"N9","N16",48,0>, <"N10","N1",48,352>, <"N10","N2",48,518>, <"N10","N3",48,291>, <"N10","N4",48,0>, <"N10","N5",48,426>, <"N10","N6",48,424>, <"N10","N7",48,0>, <"N10","N8",48,305>, <"N10","N9",48,0>, <"N10","N11",48,0>, <"N10","N12",48,597>, <"N10","N13",48,531>, <"N10","N14",48,0>, <"N10","N15",48,0>, <"N10","N16",48,135>, <"N11","N1",48,307>, <"N11","N2",48,451>, <"N11","N3",48,0>, <"N11","N4",48,0>, <"N11","N5",48,427>, <"N11","N6",48,327>, <"N11","N7",48,250>, <"N11","N8",48,206>, <"N11","N9",48,0>, <"N11","N10",48,0>, <"N11","N12",48,576>, <"N11","N13",48,583>, <"N11","N14",48,382>, <"N11","N15",48,389>, <"N11","N16",48,248>, <"N12","N1",48,0>, <"N12","N2",48,0>, <"N12","N3",48,485>, <"N12","N4",48,458>, <"N12","N5",48,0>, <"N12","N6",48,334>, <"N12","N7",48,0>, <"N12","N8",48,401>, <"N12","N9",48,445>, <"N12","N10",48,597>, <"N12","N11",48,576>, <"N12","N13",48,0>, <"N12","N14",48,535>, <"N12","N15",48,0>, <"N12","N16",48,508>, <"N13","N1",48,0>, <"N13","N2",48,0>, <"N13","N3",48,565>, <"N13","N4",48,501>, <"N13","N5",48,0>, <"N13","N6",48,489>, <"N13","N7",48,0>, <"N13","N8",48,488>, <"N13","N9",48,381>, <"N13","N10",48,531>, <"N13","N11",48,583>, <"N13","N12",48,0>, <"N13","N14",48,0>, <"N13","N15",48,0>, <"N13","N16",48,403>, <"N14","N1",48,391>, <"N14","N2",48,549>, <"N14","N3",48,467>, <"N14","N4",48,384>, <"N14","N5",48,367>, <"N14","N6",48,520>, <"N14","N7",48,0>, <"N14","N8",48,434>, <"N14","N9",48,0>, <"N14","N10",48,0>, <"N14","N11",48,382>, <"N14","N12",48,535>, <"N14","N13",48,0>, <"N14","N15",48,0>, <"N14","N16",48,0>, <"N15","N1",48,0>, <"N15","N2",48,0>, <"N15","N3",48,407>, <"N15","N4",48,331>, <"N15","N5",48,0>, <"N15","N6",48,395>, <"N15","N7",48,0>, <"N15","N8",48,345>, <"N15","N9",48,0>, <"N15","N10",48,0>, <"N15","N11",48,389>, <"N15","N12",48,0>, <"N15","N13",48,0>, <"N15","N14",48,0>, <"N15","N16",48,196>, <"N16","N1",48,305>, <"N16","N2",48,473>, <"N16","N3",48,337>, <"N16","N4",48,255>, <"N16","N5",48,333>, <"N16","N6",48,416>, <"N16","N7",48,213>, <"N16","N8",48,315>, <"N16","N9",48,0>, <"N16","N10",48,135>, <"N16","N11",48,248>, <"N16","N12",48,508>, <"N16","N13",48,403>, <"N16","N14",48,0>, <"N16","N15",48,196>};
Demands = {<"N1","N2",2,0>, <"N1","N3",4,0>, <"N1","N4",6,0>, <"N1","N5",8,0>, <"N1","N6",10,0>, <"N1","N7",12,0>, <"N1","N8",14,0>, <"N1","N9",16,0>, <"N1","N10",18,0>, <"N1","N11",20,0>, <"N1","N12",22,0>, <"N1","N13",24,0>, <"N1","N14",26,0>, <"N1","N15",28,0>, <"N1","N16",30,0>, <"N2","N1",2,0>, <"N2","N3",2,0>, <"N2","N4",4,0>, <"N2","N5",6,0>, <"N2","N6",8,0>, <"N2","N7",10,0>, <"N2","N8",12,0>, <"N2","N9",14,0>, <"N2","N10",16,0>, <"N2","N11",18,0>, <"N2","N12",20,0>, <"N2","N13",22,0>, <"N2","N14",24,0>, <"N2","N15",26,0>, <"N2","N16",28,0>, <"N3","N1",4,0>, <"N3","N2",2,0>, <"N3","N4",2,0>, <"N3","N5",4,0>, <"N3","N6",6,0>, <"N3","N7",8,0>, <"N3","N8",10,0>, <"N3","N9",12,0>, <"N3","N10",14,0>, <"N3","N11",16,0>, <"N3","N12",18,0>, <"N3","N13",20,0>, <"N3","N14",22,0>, <"N3","N15",24,0>, <"N3","N16",26,0>, <"N4","N1",6,0>, <"N4","N2",4,0>, <"N4","N3",2,0>, <"N4","N5",2,0>, <"N4","N6",4,0>, <"N4","N7",6,0>, <"N4","N8",8,0>, <"N4","N9",10,0>, <"N4","N10",12,0>, <"N4","N11",14,0>, <"N4","N12",16,0>, <"N4","N13",18,0>, <"N4","N14",20,0>, <"N4","N15",22,0>, <"N4","N16",24,0>, <"N5","N1",8,0>, <"N5","N2",6,0>, <"N5","N3",4,0>, <"N5","N4",2,0>, <"N5","N6",2,0>, <"N5","N7",4,0>, <"N5","N8",6,0>, <"N5","N9",8,0>, <"N5","N10",10,0>, <"N5","N11",12,0>, <"N5","N12",14,0>, <"N5","N13",16,0>, <"N5","N14",18,0>, <"N5","N15",20,0>, <"N5","N16",22,0>, <"N6","N1",10,0>, <"N6","N2",8,0>, <"N6","N3",6,0>, <"N6","N4",4,0>, <"N6","N5",2,0>, <"N6","N7",2,0>, <"N6","N8",4,0>, <"N6","N9",6,0>, <"N6","N10",8,0>, <"N6","N11",10,0>, <"N6","N12",12,0>, <"N6","N13",14,0>, <"N6","N14",16,0>, <"N6","N15",18,0>, <"N6","N16",20,0>, <"N7","N1",12,0>, <"N7","N2",10,0>, <"N7","N3",8,0>, <"N7","N4",6,0>, <"N7","N5",4,0>, <"N7","N6",2,0>, <"N7","N8",2,0>, <"N7","N9",4,0>, <"N7","N10",6,0>, <"N7","N11",8,0>, <"N7","N12",10,0>, <"N7","N13",12,0>, <"N7","N14",14,0>, <"N7","N15",16,0>, <"N7","N16",18,0>, <"N8","N1",14,0>, <"N8","N2",12,0>, <"N8","N3",10,0>, <"N8","N4",8,0>, <"N8","N5",6,0>, <"N8","N6",4,0>, <"N8","N7",2,0>, <"N8","N9",2,0>, <"N8","N10",4,0>, <"N8","N11",6,0>, <"N8","N12",8,0>, <"N8","N13",10,0>, <"N8","N14",12,0>, <"N8","N15",14,0>, <"N8","N16",16,0>, <"N9","N1",16,0>, <"N9","N2",14,0>, <"N9","N3",12,0>, <"N9","N4",10,0>, <"N9","N5",8,0>, <"N9","N6",6,0>, <"N9","N7",4,0>, <"N9","N8",2,0>, <"N9","N10",2,0>, <"N9","N11",4,0>, <"N9","N12",6,0>, <"N9","N13",8,0>, <"N9","N14",10,0>, <"N9","N15",12,0>, <"N9","N16",14,1>, <"N10","N1",18,0>, <"N10","N2",16,0>, <"N10","N3",14,0>, <"N10","N4",12,0>, <"N10","N5",10,0>, <"N10","N6",8,1>, <"N10","N7",6,0>, <"N10","N8",4,0>, <"N10","N9",2,0>, <"N10","N11",2,0>, <"N10","N12",4,0>, <"N10","N13",6,1>, <"N10","N14",8,0>, <"N10","N15",10,0>, <"N10","N16",12,0>, <"N11","N1",20,0>, <"N11","N2",18,0>, <"N11","N3",16,0>, <"N11","N4",14,0>, <"N11","N5",12,0>, <"N11","N6",10,0>, <"N11","N7",8,0>, <"N11","N8",6,0>, <"N11","N9",4,0>, <"N11","N10",2,0>, <"N11","N12",2,0>, <"N11","N13",4,0>, <"N11","N14",6,0>, <"N11","N15",8,0>, <"N11","N16",10,0>, <"N12","N1",22,0>, <"N12","N2",20,0>, <"N12","N3",18,0>, <"N12","N4",16,0>, <"N12","N5",14,0>, <"N12","N6",12,0>, <"N12","N7",10,0>, <"N12","N8",8,0>, <"N12","N9",6,0>, <"N12","N10",4,0>, <"N12","N11",2,0>, <"N12","N13",2,0>, <"N12","N14",4,0>, <"N12","N15",6,0>, <"N12","N16",8,0>, <"N13","N1",24,0>, <"N13","N2",22,0>, <"N13","N3",20,0>, <"N13","N4",18,0>, <"N13","N5",16,0>, <"N13","N6",14,0>, <"N13","N7",12,0>, <"N13","N8",10,0>, <"N13","N9",8,0>, <"N13","N10",6,0>, <"N13","N11",4,0>, <"N13","N12",2,0>, <"N13","N14",2,0>, <"N13","N15",4,0>, <"N13","N16",6,0>, <"N14","N1",26,0>, <"N14","N2",24,0>, <"N14","N3",22,0>, <"N14","N4",20,0>, <"N14","N5",18,0>, <"N14","N6",16,0>, <"N14","N7",14,0>, <"N14","N8",12,1>, <"N14","N9",10,0>, <"N14","N10",8,0>, <"N14","N11",6,0>, <"N14","N12",4,0>, <"N14","N13",2,0>, <"N14","N15",2,0>, <"N14","N16",4,0>, <"N15","N1",28,0>, <"N15","N2",26,0>, <"N15","N3",24,0>, <"N15","N4",22,0>, <"N15","N5",20,0>, <"N15","N6",18,0>, <"N15","N7",16,0>, <"N15","N8",14,0>, <"N15","N9",12,0>, <"N15","N10",10,0>, <"N15","N11",8,0>, <"N15","N12",6,0>, <"N15","N13",4,0>, <"N15","N14",2,0>, <"N15","N16",2,0>, <"N16","N1",30,0>, <"N16","N2",28,0>, <"N16","N3",26,0>, <"N16","N4",24,0>, <"N16","N5",22,0>, <"N16","N6",20,0>, <"N16","N7",18,0>, <"N16","N8",16,0>, <"N16","N9",14,0>, <"N16","N10",12,0>, <"N16","N11",10,0>, <"N16","N12",8,0>, <"N16","N13",6,0>, <"N16","N14",4,0>, <"N16","N15",2,0>, <"N14","N8",12,1>, <"N9","N16",14,1>, <"N10","N13",6,1>, <"N10","N6",8,1>};
